NAME : insp
TYPE : ATSP
DIMENSION : 4
EDGE_WEIGHT_TYPE : EXPLICIT
EDGE_WEIGHT_FORMAT : FULL_MATRIX
EDGE_WEIGHT_SECTION
<<<<<<< HEAD
0 611 532 388 
0 0 439 467 
0 391 0 324 
0 392 297 0 
=======
0 392 432 
0 0 154 
0 192 0 
>>>>>>> 17d0ff1cb9f279c1e97f0750fcd0e5041e9c33fd
